0
Node Left Objective IInf Best_Integer Best_Bound ItCnt Gap
0 0 0.0000 27 0.0000 11
0+ 0 nan nan 2429.3757 0.0000 nan 100.00%
0+ 0 nan nan 1026.5391 0.0000 nan 100.00%
0 2 0.0000 27 1026.5391 0.0000 11 100.00%
CPXPARAM_MIP_Cuts_LiftProj 0
1
Node Left Objective IInf Best_Integer Best_Bound ItCnt Gap
0 0 0.0000 14 0.0000 13
0+ 0 nan nan 3272.4485 0.0000 nan 100.00%
0+ 0 nan nan 430.4440 0.0000 nan 100.00%
0+ 0 nan nan 224.4538 0.0000 nan 100.00%
0 2 0.0000 14 224.4538 0.0000 13 100.00%
CPXPARAM_MIP_Cuts_LiftProj 0
2
Node Left Objective IInf Best_Integer Best_Bound ItCnt Gap
0 0 0.0000 28 0.0000 12
0+ 0 nan nan 3959.4042 0.0000 nan 100.00%
0+ 0 nan nan 1173.5814 0.0000 nan 100.00%
0 2 0.0000 28 1173.5814 0.0000 12 100.00%
CPXPARAM_MIP_Cuts_LiftProj 0
3
Node Left Objective IInf Best_Integer Best_Bound ItCnt Gap
0 0 0.0000 14 0.0000 13
0+ 0 nan nan 3005.4159 0.0000 nan 100.00%
0+ 0 nan nan 395.3366 0.0000 nan 100.00%
0+ 0 nan nan 286.0795 0.0000 nan 100.00%
0 2 0.0000 14 286.0795 0.0000 13 100.00%
CPXPARAM_MIP_Cuts_LiftProj 0
4
Node Left Objective IInf Best_Integer Best_Bound ItCnt Gap
0 0 -0.0000 17 -0.0000 12
0+ 0 nan nan 3261.8186 -0.0000 nan 100.00%
0+ 0 nan nan 766.7996 -0.0000 nan 100.00%
0+ 0 nan nan 729.3839 -0.0000 nan 100.00%
0+ 0 nan nan 501.7074 -0.0000 nan 100.00%
0 2 -0.0000 17 501.7074 -0.0000 12 100.00%
CPXPARAM_MIP_Cuts_LiftProj 0
5
Node Left Objective IInf Best_Integer Best_Bound ItCnt Gap
0 0 0.0000 14 0.0000 13
0+ 0 nan nan 2397.4108 0.0000 nan 100.00%
0+ 0 nan nan 409.3649 0.0000 nan 100.00%
0+ 0 nan nan 90.1737 0.0000 nan 100.00%
0 2 0.0000 14 90.1737 0.0000 13 100.00%
CPXPARAM_MIP_Cuts_LiftProj 0
6
Node Left Objective IInf Best_Integer Best_Bound ItCnt Gap
0 0 -0.0000 27 -0.0000 13
0+ 0 nan nan 5035.3548 -0.0000 nan 100.00%
0+ 0 nan nan 1010.8538 -0.0000 nan 100.00%
0+ 0 nan nan 522.8337 -0.0000 nan 100.00%
0 2 -0.0000 27 522.8337 -0.0000 13 100.00%
CPXPARAM_MIP_Cuts_LiftProj 0
7
Node Left Objective IInf Best_Integer Best_Bound ItCnt Gap
0 0 -0.0000 28 -0.0000 12
0+ 0 nan nan 5418.5961 -0.0000 nan 100.00%
0+ 0 nan nan 832.2752 -0.0000 nan 100.00%
0+ 0 nan nan 461.0232 -0.0000 nan 100.00%
0 2 -0.0000 28 461.0232 -0.0000 12 100.00%
CPXPARAM_MIP_Cuts_LiftProj 0
8
Node Left Objective IInf Best_Integer Best_Bound ItCnt Gap
0 0 0.0000 28 0.0000 12
0+ 0 nan nan 4409.9311 0.0000 nan 100.00%
0+ 0 nan nan 1278.9463 0.0000 nan 100.00%
0 2 0.0000 28 1278.9463 0.0000 12 100.00%
CPXPARAM_MIP_Cuts_LiftProj 0
9
Node Left Objective IInf Best_Integer Best_Bound ItCnt Gap
0 0 0.0000 24 0.0000 12
0+ 0 nan nan 2620.5706 0.0000 nan 100.00%
0+ 0 nan nan 838.6332 0.0000 nan 100.00%
0+ 0 nan nan 510.4590 0.0000 nan 100.00%
0+ 0 nan nan 233.5413 0.0000 nan 100.00%
0 2 0.0000 24 233.5413 0.0000 12 100.00%
CPXPARAM_MIP_Cuts_LiftProj 0
10
Node Left Objective IInf Best_Integer Best_Bound ItCnt Gap
0 0 -0.0000 29 -0.0000 12
0+ 0 nan nan 5078.2432 -0.0000 nan 100.00%
0+ 0 nan nan 1205.4897 -0.0000 nan 100.00%
0+ 0 nan nan 1131.1511 -0.0000 nan 100.00%
0 2 -0.0000 29 1131.1511 -0.0000 12 100.00%
CPXPARAM_MIP_Cuts_LiftProj 0
11
Node Left Objective IInf Best_Integer Best_Bound ItCnt Gap
0 0 0.0000 28 0.0000 12
0+ 0 nan nan 5061.8884 0.0000 nan 100.00%
0+ 0 nan nan 995.6573 0.0000 nan 100.00%
0+ 0 nan nan 486.6317 0.0000 nan 100.00%
0 2 0.0000 28 486.6317 0.0000 12 100.00%
CPXPARAM_MIP_Cuts_LiftProj 0
12
Node Left Objective IInf Best_Integer Best_Bound ItCnt Gap
0 0 -0.0000 29 -0.0000 12
0+ 0 nan nan 3347.8338 -0.0000 nan 100.00%
0+ 0 nan nan 1103.5671 -0.0000 nan 100.00%
0 2 -0.0000 29 1103.5671 -0.0000 12 100.00%
CPXPARAM_MIP_Cuts_LiftProj 0
13
Node Left Objective IInf Best_Integer Best_Bound ItCnt Gap
0 0 -0.0000 29 -0.0000 12
0+ 0 nan nan 2891.3767 -0.0000 nan 100.00%
0+ 0 nan nan 885.9934 -0.0000 nan 100.00%
0+ 0 nan nan 689.4434 -0.0000 nan 100.00%
0+ 0 nan nan 257.6730 -0.0000 nan 100.00%
0 2 -0.0000 29 257.6730 -0.0000 12 100.00%
CPXPARAM_MIP_Cuts_LiftProj 0
14
Node Left Objective IInf Best_Integer Best_Bound ItCnt Gap
0 0 -0.0000 29 -0.0000 12
0+ 0 nan nan 2605.7473 -0.0000 nan 100.00%
0+ 0 nan nan 1103.5570 -0.0000 nan 100.00%
0 2 -0.0000 29 1103.5570 -0.0000 12 100.00%
CPXPARAM_MIP_Cuts_LiftProj 0
15
Node Left Objective IInf Best_Integer Best_Bound ItCnt Gap
0 0 -0.0000 29 -0.0000 13
0+ 0 nan nan 2702.1327 -0.0000 nan 100.00%
0+ 0 nan nan 904.1924 -0.0000 nan 100.00%
0+ 0 nan nan 478.7292 -0.0000 nan 100.00%
0+ 0 nan nan 146.5923 -0.0000 nan 100.00%
0 2 -0.0000 29 146.5923 -0.0000 13 100.00%
CPXPARAM_MIP_Cuts_LiftProj 0
16
Node Left Objective IInf Best_Integer Best_Bound ItCnt Gap
0 0 0.0000 29 0.0000 11
0+ 0 nan nan 3576.8670 0.0000 nan 100.00%
0+ 0 nan nan 1089.1526 0.0000 nan 100.00%
0+ 0 nan nan 1000.0559 0.0000 nan 100.00%
0 2 0.0000 29 1000.0559 0.0000 11 100.00%
CPXPARAM_MIP_Cuts_LiftProj 0
17
Node Left Objective IInf Best_Integer Best_Bound ItCnt Gap
0 0 0.0000 29 0.0000 12
0+ 0 nan nan 2805.8693 0.0000 nan 100.00%
0+ 0 nan nan 1072.7036 0.0000 nan 100.00%
0+ 0 nan nan 367.6238 0.0000 nan 100.00%
0 2 0.0000 29 367.6238 0.0000 12 100.00%
CPXPARAM_MIP_Cuts_LiftProj 0
18
Node Left Objective IInf Best_Integer Best_Bound ItCnt Gap
0 0 0.0000 29 0.0000 12
0+ 0 nan nan 3636.3062 0.0000 nan 100.00%
0+ 0 nan nan 1085.0621 0.0000 nan 100.00%
0 2 0.0000 29 1085.0621 0.0000 12 100.00%
CPXPARAM_MIP_Cuts_LiftProj 0
19
Node Left Objective IInf Best_Integer Best_Bound ItCnt Gap
0 0 -0.0000 29 -0.0000 12
0+ 0 nan nan 2751.8816 -0.0000 nan 100.00%
0+ 0 nan nan 957.8379 -0.0000 nan 100.00%
0+ 0 nan nan 350.4042 -0.0000 nan 100.00%
0+ 0 nan nan 254.6837 -0.0000 nan 100.00%
0 2 -0.0000 29 254.6837 -0.0000 12 100.00%
CPXPARAM_MIP_Cuts_LiftProj 0
20
Node Left Objective IInf Best_Integer Best_Bound ItCnt Gap
0 0 0.0000 28 0.0000 13
0+ 0 nan nan 4442.0625 0.0000 nan 100.00%
0+ 0 nan nan 1314.2586 0.0000 nan 100.00%
0+ 0 nan nan 1294.9031 0.0000 nan 100.00%
0+ 0 nan nan 472.3152 0.0000 nan 100.00%
0 2 0.0000 28 472.3152 0.0000 13 100.00%
CPXPARAM_MIP_Cuts_LiftProj 0
21
Node Left Objective IInf Best_Integer Best_Bound ItCnt Gap
0 0 0.0000 29 0.0000 13
0+ 0 nan nan 4519.4390 0.0000 nan 100.00%
0+ 0 nan nan 606.4076 0.0000 nan 100.00%
0+ 0 nan nan 226.9574 0.0000 nan 100.00%
0 2 0.0000 29 226.9574 0.0000 13 100.00%
CPXPARAM_MIP_Cuts_LiftProj 0
22
Node Left Objective IInf Best_Integer Best_Bound ItCnt Gap
0 0 -0.0000 19 -0.0000 15
0+ 0 nan nan 2758.5282 -0.0000 nan 100.00%
0+ 0 nan nan 1061.9824 -0.0000 nan 100.00%
0+ 0 nan nan 406.8908 -0.0000 nan 100.00%
0+ 0 nan nan 2.4199 -0.0000 nan 100.00%
0 0 -1.00000e+75 0 2.4199 -0.0000 15 100.00%
Repeating presolve.
Tried aggregator 1 time.
MIQP Presolve eliminated 76 rows and 61 columns.
MIQP Presolve nan nan modified 1 nan coefficients.
Reduced MIQP has 38 rows, 39 columns, and
Reduced MIQP has 16 binaries, 0 generals, 0
Reduced MIQP objective Q matrix has 9 nonzeros.
Presolve time = 0.00 sec. (0.12 ticks)
Probing time = 0.00 sec. (0.01 ticks)
Tried aggregator 1 time.
Reduced MIQP has 38 rows, 39 columns, and
Reduced MIQP has 16 binaries, 0 generals, 0
Reduced MIQP objective Q matrix has 9 nonzeros.
Presolve time = 0.00 sec. (0.05 ticks)
Represolve time = 0.00 sec. (0.28 ticks)
Probing time = 0.00 sec. (0.01 ticks)
MIP emphasis:balance nan nan optimality and nan feasibility.
MIP search method:traditional branch-and-cut.
Parallel mode:none, nan nan using 1 nan thread.
Warning: Barrier optimality criterion affected by large objective
Root relaxation solution time = 0.00 sec. (0.55
0+ 0 nan nan 2.4199 -0.0000 nan 100.00%
0 0 -0.0000 5 2.4199 -0.0000 29 100.00%
0 2 -0.0000 5 2.4199 -0.0000 29 100.00%
CPXPARAM_MIP_Cuts_LiftProj 0
23
Node Left Objective IInf Best_Integer Best_Bound ItCnt Gap
0 0 0.0000 25 0.0000 15
0+ 0 nan nan 3761.2048 0.0000 nan 100.00%
0+ 0 nan nan 633.3686 0.0000 nan 100.00%
0+ 0 nan nan 621.8492 0.0000 nan 100.00%
0+ 0 nan nan 394.3735 0.0000 nan 100.00%
0 2 0.0000 25 394.3735 0.0000 15 100.00%
CPXPARAM_MIP_Cuts_LiftProj 0
24
Node Left Objective IInf Best_Integer Best_Bound ItCnt Gap
0 0 0.0000 29 0.0000 12
0+ 0 nan nan 3612.5558 0.0000 nan 100.00%
0+ 0 nan nan 938.7500 0.0000 nan 100.00%
0+ 0 nan nan 804.8402 0.0000 nan 100.00%
0 2 0.0000 29 804.8402 0.0000 12 100.00%
CPXPARAM_MIP_Cuts_LiftProj 0
25
Node Left Objective IInf Best_Integer Best_Bound ItCnt Gap
0 0 0.0000 29 0.0000 13
0+ 0 nan nan 3587.6238 0.0000 nan 100.00%
0+ 0 nan nan 699.1337 0.0000 nan 100.00%
0+ 0 nan nan 597.3388 0.0000 nan 100.00%
0+ 0 nan nan 308.0377 0.0000 nan 100.00%
0 2 0.0000 29 308.0377 0.0000 13 100.00%
CPXPARAM_MIP_Cuts_LiftProj 0
26
Node Left Objective IInf Best_Integer Best_Bound ItCnt Gap
0 0 0.0000 29 0.0000 13
0+ 0 nan nan 3532.1610 0.0000 nan 100.00%
0+ 0 nan nan 938.1434 0.0000 nan 100.00%
0+ 0 nan nan 800.6404 0.0000 nan 100.00%
0+ 0 nan nan 418.0572 0.0000 nan 100.00%
0 2 0.0000 29 418.0572 0.0000 13 100.00%
CPXPARAM_MIP_Cuts_LiftProj 0
27
Node Left Objective IInf Best_Integer Best_Bound ItCnt Gap
0 0 0.0000 29 0.0000 13
0+ 0 nan nan 2978.7946 0.0000 nan 100.00%
0+ 0 nan nan 695.3404 0.0000 nan 100.00%
0+ 0 nan nan 319.8431 0.0000 nan 100.00%
0+ 0 nan nan 243.8650 0.0000 nan 100.00%
0 2 0.0000 29 243.8650 0.0000 13 100.00%
CPXPARAM_MIP_Cuts_LiftProj 0
28
Node Left Objective IInf Best_Integer Best_Bound ItCnt Gap
0 0 0.0000 30 0.0000 11
0+ 0 nan nan 5836.8915 0.0000 nan 100.00%
0+ 0 nan nan 1316.0757 0.0000 nan 100.00%
0+ 0 nan nan 1131.0084 0.0000 nan 100.00%
0 2 0.0000 30 1131.0084 0.0000 11 100.00%
CPXPARAM_MIP_Cuts_LiftProj 0
29
Node Left Objective IInf Best_Integer Best_Bound ItCnt Gap
0 0 0.0000 21 0.0000 12
0+ 0 nan nan 2949.2601 0.0000 nan 100.00%
0+ 0 nan nan 927.5887 0.0000 nan 100.00%
0+ 0 nan nan 220.7501 0.0000 nan 100.00%
0+ 0 nan nan 115.6174 0.0000 nan 100.00%
0 2 0.0000 21 115.6174 0.0000 12 100.00%
CPXPARAM_MIP_Cuts_LiftProj 0
30
Node Left Objective IInf Best_Integer Best_Bound ItCnt Gap
0 0 -0.0000 27 -0.0000 13
0+ 0 nan nan 3890.8939 -0.0000 nan 100.00%
0+ 0 nan nan 1288.9355 -0.0000 nan 100.00%
0+ 0 nan nan 990.8362 -0.0000 nan 100.00%
0+ 0 nan nan 0.0935 -0.0000 nan 100.00%
0 0 -1.00000e+75 0 0.0935 -0.0000 13 100.00%
Repeating presolve.
Tried aggregator 1 time.
MIQP Presolve eliminated 70 rows and 53 columns.
Reduced MIQP has 60 rows, 55 columns, and
Reduced MIQP has 21 binaries, 0 generals, 0
Reduced MIQP objective Q matrix has 9 nonzeros.
Presolve time = 0.00 sec. (0.14 ticks)
Probing time = 0.00 sec. (0.02 ticks)
Tried aggregator 1 time.
Reduced MIQP has 60 rows, 55 columns, and
Reduced MIQP has 21 binaries, 0 generals, 0
Reduced MIQP objective Q matrix has 9 nonzeros.
Presolve time = 0.00 sec. (0.08 ticks)
Represolve time = 0.00 sec. (0.37 ticks)
Probing time = 0.00 sec. (0.02 ticks)
MIP emphasis:balance nan nan optimality and nan feasibility.
MIP search method:traditional branch-and-cut.
Parallel mode:none, nan nan using 1 nan thread.
Warning: Barrier optimality criterion affected by large objective
Root relaxation solution time = 0.00 sec. (0.89
0+ 0 nan nan 0.0935 -0.0000 nan 100.00%
0 0 -0.0000 9 0.0935 -0.0000 25 100.00%
0 2 -0.0000 9 0.0935 -0.0000 25 100.00%
CPXPARAM_MIP_Cuts_LiftProj 0
31
Node Left Objective IInf Best_Integer Best_Bound ItCnt Gap
0 0 -0.0000 25 -0.0000 13
0+ 0 nan nan 3415.1208 -0.0000 nan 100.00%
0+ 0 nan nan 1100.2016 -0.0000 nan 100.00%
0+ 0 nan nan 324.3761 -0.0000 nan 100.00%
0 2 -0.0000 25 324.3761 -0.0000 13 100.00%
CPXPARAM_MIP_Cuts_LiftProj 0
32
Node Left Objective IInf Best_Integer Best_Bound ItCnt Gap
0 0 -0.0000 29 -0.0000 11
0+ 0 nan nan 2266.6548 -0.0000 nan 100.00%
0+ 0 nan nan 1030.0515 -0.0000 nan 100.00%
0 2 -0.0000 29 1030.0515 -0.0000 11 100.00%
CPXPARAM_MIP_Cuts_LiftProj 0
33
Node Left Objective IInf Best_Integer Best_Bound ItCnt Gap
0 0 -0.0000 28 -0.0000 13
0+ 0 nan nan 3742.9462 -0.0000 nan 100.00%
0+ 0 nan nan 717.6282 -0.0000 nan 100.00%
0+ 0 nan nan 234.2233 -0.0000 nan 100.00%
0 2 -0.0000 28 234.2233 -0.0000 13 100.00%
CPXPARAM_MIP_Cuts_LiftProj 0
34
Node Left Objective IInf Best_Integer Best_Bound ItCnt Gap
0 0 -0.0000 29 -0.0000 12
0+ 0 nan nan 2714.7275 -0.0000 nan 100.00%
0+ 0 nan nan 1021.8941 -0.0000 nan 100.00%
0+ 0 nan nan 774.6617 -0.0000 nan 100.00%
0 2 -0.0000 29 774.6617 -0.0000 12 100.00%
CPXPARAM_MIP_Cuts_LiftProj 0
35
Node Left Objective IInf Best_Integer Best_Bound ItCnt Gap
0 0 -0.0000 23 -0.0000 14
0+ 0 nan nan 3120.5902 -0.0000 nan 100.00%
0+ 0 nan nan 701.2883 -0.0000 nan 100.00%
0+ 0 nan nan 685.1897 -0.0000 nan 100.00%
0+ 0 nan nan 225.6992 -0.0000 nan 100.00%
0 2 -0.0000 23 225.6992 -0.0000 14 100.00%
CPXPARAM_MIP_Cuts_LiftProj 0
36
Node Left Objective IInf Best_Integer Best_Bound ItCnt Gap
0 0 -0.0000 30 -0.0000 11
0+ 0 nan nan 7135.2084 -0.0000 nan 100.00%
0+ 0 nan nan 1130.5701 -0.0000 nan 100.00%
0+ 0 nan nan 975.4182 -0.0000 nan 100.00%
0 2 -0.0000 30 975.4182 -0.0000 11 100.00%
CPXPARAM_MIP_Cuts_LiftProj 0
37
Node Left Objective IInf Best_Integer Best_Bound ItCnt Gap
0 0 0.0000 27 0.0000 12
0+ 0 nan nan 3363.3122 0.0000 nan 100.00%
0+ 0 nan nan 593.1735 0.0000 nan 100.00%
0+ 0 nan nan 143.9179 0.0000 nan 100.00%
0 2 0.0000 27 143.9179 0.0000 12 100.00%
CPXPARAM_MIP_Cuts_LiftProj 0
38
Node Left Objective IInf Best_Integer Best_Bound ItCnt Gap
0 0 -0.0000 26 -0.0000 13
0+ 0 nan nan 4038.1295 -0.0000 nan 100.00%
0+ 0 nan nan 888.4106 -0.0000 nan 100.00%
0+ 0 nan nan 393.6384 -0.0000 nan 100.00%
0+ 0 nan nan 0.5794 -0.0000 nan 100.00%
0 0 -1.00000e+75 0 0.5794 -0.0000 13 100.00%
0 2 -0.0000 23 0.5794 -0.0000 13 100.00%
CPXPARAM_MIP_Cuts_LiftProj 0
39
Node Left Objective IInf Best_Integer Best_Bound ItCnt Gap
0 0 0.0000 23 0.0000 13
0+ 0 nan nan 3818.6617 0.0000 nan 100.00%
0+ 0 nan nan 700.8378 0.0000 nan 100.00%
0+ 0 nan nan 337.9267 0.0000 nan 100.00%
0 2 0.0000 23 337.9267 0.0000 13 100.00%
CPXPARAM_MIP_Cuts_LiftProj 0
